* ENCODING=ISO-8859-1
NAME          CPLEX
ROWS
 N  obj1    
 G  c1      
 G  c2      
 G  c3      
 G  c4      
 G  c5      
 G  c6      
 G  c7      
 G  c8      
 G  c9      
 G  c10     
 G  c11     
 G  c12     
 G  c13     
 G  c14     
 G  c15     
 G  c16     
 G  c17     
 G  c18     
 G  c19     
 G  c20     
 G  c21     
 G  c22     
 G  c23     
 G  c24     
 G  c25     
 G  c26     
 G  c27     
 G  c28     
 G  c29     
 G  c30     
 G  c31     
 G  c32     
 G  c33     
 G  c34     
 G  c35     
 G  c36     
 G  c37     
 G  c38     
 G  c39     
 G  c40     
 G  c41     
 G  c42     
 G  c43     
 G  c44     
 G  c45     
 G  c46     
 G  c47     
 G  c48     
 G  c49     
 G  c50     
 G  c51     
 G  c52     
 G  c53     
 G  c54     
 G  c55     
 G  c56     
 G  c57     
 G  c58     
 G  c59     
 G  c60     
 G  c61     
 G  c62     
 G  c63     
 G  c64     
 G  c65     
 G  c66     
 G  c67     
 G  c68     
 G  c69     
 G  c70     
COLUMNS
    MARK0000  'MARKER'                 'INTORG'
    x1        obj1                            1
    x1        c21                           639
    x1        c30                           105
    x1        c36                           310
    x1        c39                           604
    x1        c42                           495
    x1        c60                           313
    x1        c61                           744
    x1        c62                           948
    x1        c70                           456
    x2        obj1                            1
    x2        c9                            192
    x2        c10                           561
    x2        c13                           713
    x2        c15                           166
    x2        c20                           921
    x3        obj1                            1
    x3        c11                           869
    x3        c16                           722
    x3        c41                           314
    x3        c55                           544
    x4        obj1                            1
    x4        c6                            225
    x4        c9                            478
    x4        c15                           443
    x4        c27                           568
    x4        c28                           245
    x4        c35                           418
    x4        c37                           630
    x4        c40                           487
    x4        c57                           628
    x4        c66                           344
    x5        obj1                            1
    x5        c1                            581
    x5        c2                            668
    x5        c10                           920
    x5        c17                           710
    x5        c23                           121
    x5        c38                           144
    x5        c50                           954
    x5        c63                           949
    x6        obj1                            1
    x6        c13                           144
    x6        c14                           455
    x6        c30                           541
    x6        c31                           363
    x6        c37                           175
    x6        c39                           854
    x6        c42                           534
    x6        c59                           305
    x6        c63                           913
    x7        obj1                            1
    x7        c1                            936
    x7        c4                            834
    x7        c28                           797
    x7        c64                           149
    x7        c66                           286
    x7        c70                           637
    x8        obj1                            1
    x8        c9                            716
    x8        c15                           876
    x8        c18                           512
    x8        c31                           175
    x8        c33                           400
    x8        c42                           596
    x8        c43                           869
    x8        c52                           812
    x9        obj1                            1
    x9        c3                            178
    x9        c7                            609
    x9        c31                           267
    x9        c32                           480
    x9        c46                           684
    x9        c58                           483
    x9        c62                           796
    x9        c69                           624
    x10       obj1                            1
    x10       c11                           520
    x10       c16                           792
    x10       c21                           297
    x10       c32                           889
    x10       c34                           127
    x10       c44                           833
    x10       c52                           362
    x10       c70                           497
    x11       obj1                            1
    x11       c1                            779
    x11       c6                            795
    x11       c7                            845
    x11       c9                            438
    x11       c14                           886
    x11       c19                           902
    x11       c20                           795
    x11       c22                           745
    x11       c26                           750
    x11       c43                           966
    x11       c47                           579
    x12       obj1                            1
    x12       c7                            691
    x12       c25                           984
    x12       c27                           355
    x12       c32                           110
    x12       c65                           131
    x12       c70                           927
    x13       obj1                            1
    x13       c1                            204
    x13       c5                            974
    x13       c18                           277
    x13       c33                           129
    x13       c54                           782
    x13       c58                           360
    x13       c60                           284
    x13       c61                           957
    x14       obj1                            1
    x14       c6                            214
    x14       c16                           189
    x14       c17                           459
    x14       c18                           823
    x14       c21                           228
    x14       c22                           822
    x14       c38                           228
    x14       c49                           437
    x14       c50                           745
    x14       c53                           513
    x14       c61                           260
    x14       c63                           992
    x15       obj1                            1
    x15       c7                            674
    x15       c8                            171
    x15       c14                           875
    x15       c53                           470
    x15       c54                           990
    x15       c62                           507
    x15       c69                           611
    x16       obj1                            1
    x16       c20                           833
    x16       c25                           687
    x16       c40                           912
    x16       c48                           214
    x16       c68                           387
    x17       obj1                            1
    x17       c29                           810
    x17       c35                           586
    x17       c39                           508
    x17       c61                           345
    x18       obj1                            1
    x18       c4                            724
    x18       c8                            654
    x18       c11                           379
    x18       c20                           444
    x18       c21                           863
    x18       c25                           133
    x18       c34                           524
    x18       c37                           362
    x18       c48                           658
    x18       c51                           517
    x19       obj1                            1
    x19       c1                            596
    x19       c15                           971
    x19       c22                           561
    x19       c31                           903
    x19       c41                           963
    x19       c43                           202
    x19       c52                           492
    x19       c62                           666
    x19       c65                           517
    x20       obj1                            1
    x20       c2                            309
    x20       c6                            238
    x20       c21                           400
    x20       c44                           410
    x20       c53                           676
    x20       c54                           102
    x20       c70                           709
    x21       obj1                            1
    x21       c3                            114
    x21       c24                           298
    x21       c29                           181
    x21       c43                           825
    x21       c66                           180
    x22       obj1                            1
    x22       c1                            734
    x22       c30                           968
    x22       c32                           971
    x22       c39                           887
    x22       c52                           766
    x22       c56                           673
    x22       c68                           294
    x23       obj1                            1
    x23       c2                            409
    x23       c56                           194
    x23       c60                           575
    x23       c62                           149
    x24       obj1                            1
    x24       c18                           387
    x24       c20                           191
    x24       c35                           690
    x24       c54                           618
    x24       c56                           768
    x25       obj1                            1
    x25       c8                            513
    x25       c19                           665
    x25       c21                           201
    x25       c24                           884
    x25       c28                           638
    x25       c40                           343
    x25       c45                           197
    x26       obj1                            1
    x26       c12                           144
    x26       c33                           485
    x26       c59                           641
    x26       c62                           516
    x27       obj1                            1
    x27       c2                            679
    x27       c8                            561
    x27       c24                           612
    x27       c47                           978
    x27       c68                           424
    x27       c70                           524
    x28       obj1                            1
    x28       c8                            862
    x28       c38                           245
    x28       c44                           777
    x28       c55                           447
    x28       c64                           467
    x28       c66                           223
    x28       c67                           286
    x29       obj1                            1
    x29       c16                           420
    x29       c33                           412
    x29       c40                           949
    x29       c53                           787
    x29       c67                           208
    x30       obj1                            1
    x30       c9                            573
    x30       c26                           484
    x30       c36                           211
    x30       c50                           102
    x30       c51                           286
    x30       c55                           251
    x31       obj1                            1
    x31       c21                           805
    x31       c35                           364
    x31       c63                           674
    x32       obj1                            1
    x32       c19                           343
    x32       c29                           202
    x32       c30                           427
    x32       c35                           361
    x32       c39                           557
    x32       c46                           967
    x32       c48                           273
    x33       obj1                            1
    x33       c2                            738
    x33       c22                           866
    x33       c39                           792
    x33       c43                           605
    x33       c62                           593
    x33       c70                           436
    x34       obj1                            1
    x34       c14                           116
    x34       c18                           575
    x34       c20                           645
    x34       c27                           758
    x34       c33                           781
    x34       c37                           346
    x34       c42                           527
    x34       c43                           180
    x34       c53                           483
    x35       obj1                            1
    x35       c7                            214
    x35       c24                           806
    x35       c43                           301
    x35       c45                           229
    x35       c51                           189
    x35       c54                           222
    x36       obj1                            1
    x36       c7                            287
    x36       c14                           988
    x36       c43                           944
    x36       c51                           319
    x36       c64                           578
    x37       obj1                            1
    x37       c5                            169
    x37       c8                            450
    x37       c9                            537
    x37       c11                           932
    x37       c12                           538
    x37       c30                           304
    x37       c41                           818
    x37       c46                           996
    x37       c49                           478
    x37       c55                           341
    x37       c60                           183
    x37       c70                           116
    x38       obj1                            1
    x38       c20                           133
    x38       c40                           176
    x38       c41                           405
    x38       c52                           716
    x39       obj1                            1
    x39       c11                           891
    x39       c24                           826
    x39       c32                           917
    x39       c35                           116
    x39       c40                           457
    x39       c49                           539
    x39       c65                           486
    x39       c69                           211
    x39       c70                           606
    x40       obj1                            1
    x40       c11                           346
    x40       c14                           987
    x40       c32                           703
    x40       c61                           321
    x40       c66                           473
    x40       c70                           787
    x41       obj1                            1
    x41       c5                            924
    x41       c7                            406
    x41       c9                            433
    x41       c12                           349
    x41       c13                           565
    x41       c29                           583
    x41       c45                           196
    x41       c50                           349
    x41       c54                           436
    x41       c69                           564
    x42       obj1                            1
    x42       c3                            321
    x42       c6                            422
    x42       c20                           563
    x42       c37                           911
    x42       c42                           602
    x42       c49                           888
    x42       c58                           159
    x42       c67                           955
    x43       obj1                            1
    x43       c10                           105
    x43       c11                           453
    x43       c24                           447
    x43       c28                           999
    x43       c37                           961
    x43       c42                           241
    x43       c46                           653
    x43       c49                           219
    x43       c56                           551
    x43       c57                           212
    x43       c69                           812
    x44       obj1                            1
    x44       c12                           174
    x44       c26                           769
    x44       c31                           241
    x44       c59                           138
    x45       obj1                            1
    x45       c6                            419
    x45       c8                            733
    x45       c9                            563
    x45       c12                           266
    x45       c31                           531
    x45       c45                           736
    x45       c49                           722
    x45       c50                           858
    x45       c54                           310
    x45       c58                           864
    x45       c68                           813
    x46       obj1                            1
    x46       c18                           104
    x46       c39                           960
    x46       c55                           294
    x47       obj1                            1
    x47       c17                           149
    x47       c20                           151
    x47       c46                           276
    x47       c56                           319
    x47       c61                           617
    x48       obj1                            1
    x48       c6                            321
    x48       c14                           499
    x48       c29                           426
    x48       c35                           282
    x48       c36                           108
    x48       c39                           859
    x48       c51                           354
    x48       c61                           205
    x49       obj1                            1
    x49       c13                           139
    x49       c36                           986
    x49       c41                           988
    x49       c45                           267
    x49       c54                           773
    x49       c58                           553
    x49       c68                           319
    x50       obj1                            1
    x50       c5                            289
    x50       c32                           577
    x50       c33                           206
    x50       c37                           738
    x50       c39                           927
    x50       c47                           389
    x50       c64                           938
    x50       c68                           953
    x51       obj1                            1
    x51       c1                            769
    x51       c10                           617
    x51       c13                           501
    x51       c25                           343
    x51       c34                           245
    x51       c37                           827
    x51       c56                           461
    x52       obj1                            1
    x52       c15                           855
    x52       c33                           160
    x52       c38                           712
    x52       c53                           320
    x52       c68                           284
    x53       obj1                            1
    x53       c22                           608
    x53       c33                           467
    x53       c48                           600
    x53       c52                           164
    x54       obj1                            1
    x54       c10                           651
    x54       c15                           669
    x54       c16                           892
    x54       c19                           201
    x54       c21                           639
    x54       c25                           972
    x54       c30                           103
    x54       c40                           352
    x54       c42                           604
    x54       c51                           115
    x54       c57                           667
    x54       c59                           443
    x54       c68                           157
    x54       c69                           312
    x55       obj1                            1
    x55       c8                            227
    x55       c12                           730
    x55       c48                           789
    x55       c56                           569
    x55       c69                           866
    x56       obj1                            1
    x56       c13                           911
    x56       c23                           451
    x56       c27                           282
    x56       c46                           878
    x56       c47                           680
    x56       c53                           654
    x56       c60                           189
    x56       c67                           475
    x57       obj1                            1
    x57       c27                           600
    x57       c31                           879
    x57       c48                           250
    x57       c58                           119
    x57       c61                           272
    x58       obj1                            1
    x58       c4                            307
    x58       c14                           176
    x58       c30                           338
    x58       c50                           650
    x58       c58                           983
    x58       c65                           623
    x58       c69                           364
    x59       obj1                            1
    x59       c3                            818
    x59       c5                            247
    x59       c27                           216
    x59       c28                           201
    x59       c40                           265
    x59       c43                           916
    x60       obj1                            1
    x60       c4                            921
    x60       c5                            882
    x60       c7                            296
    x60       c8                            527
    x60       c13                           257
    x60       c34                           318
    x60       c57                           279
    x60       c59                           757
    x60       c61                           374
    x60       c66                           159
    x60       c67                           178
    x61       obj1                            1
    x61       c5                            547
    x61       c20                           781
    x61       c23                           623
    x61       c28                           923
    x61       c34                           615
    x61       c50                           343
    x61       c60                           462
    x61       c66                           580
    x62       obj1                            1
    x62       c9                            405
    x62       c11                           445
    x62       c12                           681
    x62       c17                           432
    x62       c31                           348
    x62       c41                           895
    x62       c42                           412
    x62       c45                           356
    x62       c57                           772
    x62       c63                           276
    x62       c66                           497
    x62       c67                           988
    x62       c69                           761
    x63       obj1                            1
    x63       c2                            738
    x63       c3                            667
    x63       c16                           171
    x63       c22                           417
    x63       c33                           868
    x63       c39                           453
    x63       c40                           366
    x63       c47                           521
    x63       c51                           171
    x64       obj1                            1
    x64       c7                            394
    x64       c8                            194
    x64       c12                           571
    x64       c17                           727
    x64       c19                           341
    x64       c26                           118
    x64       c38                           164
    x64       c53                           836
    x64       c55                           353
    x64       c61                           668
    x64       c64                           834
    x65       obj1                            1
    x65       c9                            274
    x65       c12                           196
    x65       c13                           603
    x65       c21                           801
    x65       c57                           588
    x65       c60                           522
    x65       c69                           403
    x66       obj1                            1
    x66       c1                            101
    x66       c15                           263
    x66       c24                           331
    x66       c43                           309
    x66       c51                           637
    x66       c52                           315
    x66       c54                           705
    x66       c60                           899
    x67       obj1                            1
    x67       c13                           480
    x67       c19                           301
    x67       c25                           672
    x67       c33                           697
    x67       c42                           713
    x67       c65                           473
    x68       obj1                            1
    x68       c24                           791
    x68       c25                           958
    x68       c32                           655
    x68       c40                           275
    x68       c41                           277
    x68       c44                           148
    x68       c45                           690
    x68       c48                           696
    x68       c54                           561
    x68       c59                           289
    x68       c68                           129
    x69       obj1                            1
    x69       c13                           523
    x69       c24                           732
    x69       c32                           794
    x69       c35                           705
    x69       c36                           504
    x69       c46                           225
    x70       obj1                            1
    x70       c1                            141
    x70       c23                           826
    x70       c26                           673
    x70       c38                           765
    x70       c48                           106
    x70       c64                           983
    MARK0001  'MARKER'                 'INTEND'
RHS
    rhs       c1                           2421
    rhs       c2                           1771
    rhs       c3                           1049
    rhs       c4                           1393
    rhs       c5                           2016
    rhs       c6                           1317
    rhs       c7                           2208
    rhs       c8                           2446
    rhs       c9                           2305
    rhs       c10                          1427
    rhs       c11                          2418
    rhs       c12                          1825
    rhs       c13                          2418
    rhs       c14                          2491
    rhs       c15                          2122
    rhs       c16                          1593
    rhs       c17                          1239
    rhs       c18                          1339
    rhs       c19                          1377
    rhs       c20                          2729
    rhs       c21                          2437
    rhs       c22                          2010
    rhs       c23                          1011
    rhs       c24                          2864
    rhs       c25                          2375
    rhs       c26                          1397
    rhs       c27                          1390
    rhs       c28                          1902
    rhs       c29                          1101
    rhs       c30                          1393
    rhs       c31                          1854
    rhs       c32                          3048
    rhs       c33                          2303
    rhs       c34                           915
    rhs       c35                          1761
    rhs       c36                          1060
    rhs       c37                          2475
    rhs       c38                          1129
    rhs       c39                          3701
    rhs       c40                          2291
    rhs       c41                          2330
    rhs       c42                          2362
    rhs       c43                          3059
    rhs       c44                          1084
    rhs       c45                          1336
    rhs       c46                          2340
    rhs       c47                          1574
    rhs       c48                          1793
    rhs       c49                          1642
    rhs       c50                          2001
    rhs       c51                          1294
    rhs       c52                          1814
    rhs       c53                          2370
    rhs       c54                          2750
    rhs       c55                          1115
    rhs       c56                          1768
    rhs       c57                          1573
    rhs       c58                          1761
    rhs       c59                          1287
    rhs       c60                          1714
    rhs       c61                          2382
    rhs       c62                          2088
    rhs       c63                          1902
    rhs       c64                          1975
    rhs       c65                          1115
    rhs       c66                          1371
    rhs       c67                          1545
    rhs       c68                          1880
    rhs       c69                          2764
    rhs       c70                          2848
BOUNDS
 LI bnd       x1        0
 LI bnd       x2        0
 LI bnd       x3        0
 LI bnd       x4        0
 LI bnd       x5        0
 LI bnd       x6        0
 LI bnd       x7        0
 LI bnd       x8        0
 LI bnd       x9        0
 LI bnd       x10       0
 LI bnd       x11       0
 LI bnd       x12       0
 LI bnd       x13       0
 LI bnd       x14       0
 LI bnd       x15       0
 LI bnd       x16       0
 LI bnd       x17       0
 LI bnd       x18       0
 LI bnd       x19       0
 LI bnd       x20       0
 LI bnd       x21       0
 LI bnd       x22       0
 LI bnd       x23       0
 LI bnd       x24       0
 LI bnd       x25       0
 LI bnd       x26       0
 LI bnd       x27       0
 LI bnd       x28       0
 LI bnd       x29       0
 LI bnd       x30       0
 LI bnd       x31       0
 LI bnd       x32       0
 LI bnd       x33       0
 LI bnd       x34       0
 LI bnd       x35       0
 LI bnd       x36       0
 LI bnd       x37       0
 LI bnd       x38       0
 LI bnd       x39       0
 LI bnd       x40       0
 LI bnd       x41       0
 LI bnd       x42       0
 LI bnd       x43       0
 LI bnd       x44       0
 LI bnd       x45       0
 LI bnd       x46       0
 LI bnd       x47       0
 LI bnd       x48       0
 LI bnd       x49       0
 LI bnd       x50       0
 LI bnd       x51       0
 LI bnd       x52       0
 LI bnd       x53       0
 LI bnd       x54       0
 LI bnd       x55       0
 LI bnd       x56       0
 LI bnd       x57       0
 LI bnd       x58       0
 LI bnd       x59       0
 LI bnd       x60       0
 LI bnd       x61       0
 LI bnd       x62       0
 LI bnd       x63       0
 LI bnd       x64       0
 LI bnd       x65       0
 LI bnd       x66       0
 LI bnd       x67       0
 LI bnd       x68       0
 LI bnd       x69       0
 LI bnd       x70       0
ENDATA
